<number of tasks>
100

<cycle time>
1000

<order strength>
0.596


<task times>
1 439
2 125
3 124
4 191
5 45
6 104
7 479
8 48
9 544
10 103
11 193
12 145
13 355
14 536
15 72
16 134
17 169
18 20
19 26
20 208
21 214
22 529
23 155
24 569
25 305
26 504
27 507
28 132
29 297
30 36
31 110
32 115
33 47
34 461
35 347
36 57
37 177
38 126
39 167
40 66
41 434
42 543
43 242
44 122
45 498
46 549
47 548
48 366
49 164
50 494
51 462
52 144
53 271
54 176
55 103
56 79
57 324
58 102
59 142
60 452
61 535
62 102
63 144
64 135
65 108
66 509
67 263
68 185
69 42
70 580
71 537
72 88
73 202
74 72
75 106
76 503
77 60
78 186
79 474
80 429
81 106
82 24
83 514
84 468
85 32
86 136
87 598
88 65
89 342
90 569
91 63
92 107
93 86
94 552
95 47
96 400
97 35
98 105
99 172
100 483

<precedence relations>
1,8
2,6
2,9
2,27
2,33
3,7
3,10
3,11
4,10
4,11
4,12
5,10
5,11
5,12
6,13
7,14
8,17
9,18
10,15
10,16
10,19
11,19
12,19
13,23
14,20
15,21
16,22
17,24
18,23
19,23
19,24
19,25
19,26
19,27
20,28
21,29
22,32
23,28
23,29
23,30
23,31
23,32
24,30
25,30
25,33
25,38
26,29
26,31
26,33
26,34
26,53
27,28
27,71
28,37
29,39
30,35
31,36
31,52
32,38
32,39
32,50
33,50
34,64
35,42
36,43
37,44
38,40
38,41
38,62
39,45
39,49
40,46
41,47
42,49
43,48
44,50
45,51
45,52
45,57
46,53
47,54
48,55
49,56
49,57
50,55
50,79
51,55
52,54
52,55
52,62
52,77
53,58
53,59
53,60
53,61
54,64
55,61
55,63
56,62
56,64
56,70
56,77
57,61
57,62
57,64
58,66
59,68
60,69
61,65
61,67
61,76
62,75
62,76
62,88
62,89
62,90
63,70
63,97
63,98
64,71
64,76
65,72
66,75
67,74
68,76
69,77
70,73
70,75
70,100
71,78
71,79
71,83
72,81
73,80
74,83
75,82
77,99
79,88
79,89
79,90
80,87
81,84
82,86
83,85
83,88
83,89
83,90
84,91
85,92
86,93
88,95
90,94
90,96
91,96
92,96
93,96
94,98
95,97
96,99
97,99
98,99
98,100

<end>
